NAME: exemple_phase_4
TYPE: TSP
COMMENT: Application RSL et HK
DIMENSION: 5
EDGE_WEIGHT_TYPE: EXPLICIT
EDGE_WEIGHT_FORMAT: FULL_MATRIX
DISPLAY_DATA_TYPE: TWOD_DISPLAY
EDGE_WEIGHT_SECTION
0 1 4 2 7
1 0 5 3 4
4 5 0 9 6
2 3 9 0 2
7 4 6 2 0
DISPLAY_DATA_SECTION
   1    200.0  200.0
   2    100.0  500.0
   3    350.0  700.0
   4    600.0  500.0
   5    500.0  200
EOF
